
  12    4
  10   10   10   10

   0   0   0   0   0   5 2 3 6 10 11 
   6  10  10  10  10   3 9 7 4 
   7  10  10  10  10   1 5 
   8  10  10  10  10   1 8 
   7  10  10  10  10   1 7 
   1  10  10  10  10   1 7 
   8  10  10  10  10   1 12
   6  10  10  10  10   1 12
   9  10  10  10  10   1 12
   7  10  10  10  10   1 12
   7  10  10  10  10   1 12
   0   0   0   0   0   0 
